decision_x1=[0,2];
decision_x2=[0,2];
decision_x3=[0,2];
decision_x4=[0,2];
decision_x5=[0,2];
decision_x6=[0,2];
random_y1=[0,2];
random_y2=[0,2];
constraint_x3_x1=[
0,0,5|
0,1,6.9|
0,2,8.1|
1,0,1.7|
1,1,5.8|
1,2,6.2|
2,0,7.7|
2,1,4.9|
2,2,6.5|
];
constraint_x4_x1=[
0,0,8.6|
0,1,9.6|
0,2,8.7|
1,0,8.9|
1,1,6.7|
1,2,8.9|
2,0,0.5|
2,1,6.8|
2,2,5.4|
];
constraint_x4_x2=[
0,0,9|
0,1,3.2|
0,2,3|
1,0,2.1|
1,1,4.9|
1,2,2.5|
2,0,3.3|
2,1,4.1|
2,2,8.8|
];
constraint_x4_x3=[
0,0,0.98|
0,1,5.7|
0,2,6.1|
1,0,6.3|
1,1,2.4|
1,2,9.3|
2,0,3.9|
2,1,4.6|
2,2,2.4|
];
constraint_x5_x1=[
0,0,4.7|
0,1,0.025|
0,2,9.6|
1,0,0.27|
1,1,9.5|
1,2,9.5|
2,0,7.1|
2,1,0.36|
2,2,1.6|
];
constraint_x5_x4=[
0,0,6.3|
0,1,4.6|
0,2,0.93|
1,0,2.8|
1,1,4.8|
1,2,8|
2,0,7.2|
2,1,8.8|
2,2,3.3|
];
constraint_x6_x4=[
0,0,0.04|
0,1,6.8|
0,2,5.4|
1,0,2.5|
1,1,4.9|
1,2,0.44|
2,0,4.9|
2,1,3.7|
2,2,7.3|
];
constraint_x6_x5=[
0,0,3.2|
0,1,3.3|
0,2,7|
1,0,7|
1,1,1|
1,2,4.1|
2,0,7.3|
2,1,3.6|
2,2,8.6|
];
constraint_x1_y1=[
0,0,4.2|
0,1,9.8|
0,2,9.9|
1,0,9.9|
1,1,9.8|
1,2,4|
2,0,2.2|
2,1,6.8|
2,2,3.2|
];
constraint_x2_y2=[
0,0,3.8|
0,1,3|
0,2,9.3|
1,0,3.4|
1,1,8.1|
1,2,8.2|
2,0,9.9|
2,1,9.5|
2,2,9.1|
];
initial_distribution_y1=[0.63,0.11,0.26];
initial_distribution_y2=[0.2,0.45,0.35];
transition_y1=[
0.32,0.41,0.27|
0.4,0.27,0.33|
0.42,0.19,0.39|
];
transition_y2=[
0.17,0.45,0.38|
0.074,0.42,0.51|
0.045,0.1,0.85|
];
